(set-info :source |printed by MathSAT|)
(declare-fun |!{$(in_main#0)<N>}| () Int)
(declare-fun |!{$(in_main#0)<N>}.next| () Int)
(declare-fun |!{$(in_main#0)<e>}| () Int)
(declare-fun |!{$(in_main#0)<e>}.next| () Int)
(declare-fun |!{$(in_main#0)<i>}| () Int)
(declare-fun |!{$(in_main#0)<i>}.next| () Int)
(declare-fun |!{$(in_main#0)<j>}| () Int)
(declare-fun |!{$(in_main#0)<j>}.next| () Int)
(declare-fun |!{$(in_main#0)<x>}| () Int)
(declare-fun |!{$(in_main#0)<x>}.next| () Int)
(declare-fun |!{$(in_main#0)<a.1>}| () (Array Int Int))
(declare-fun |!{$(in_main#0)<a.1>}.next| () (Array Int Int))
(declare-fun |!{$(in_main#0)<$(in___VERIFIER_nondet_int#0)<h#<__VERIFIER_nondet_int.return>>>}| () Int)
(declare-fun |!{$(in_main#0)<$(in___VERIFIER_nondet_int#1)<h#<__VERIFIER_nondet_int.return>>>}| () Int)
(declare-fun |!{$(in_main#0)<$(in___VERIFIER_nondet_int#2)<h#<__VERIFIER_nondet_int.return>>>}| () Int)
(declare-fun !pc () Int)
(declare-fun !pc.next () Int)
(declare-fun |%{$(in_main#0)<i>}#1| () Int)
(declare-fun |%{$(in_main#0)<x>}#1| () Int)
(declare-fun |%{$(in_main#0)<a.1>}#1| () (Array Int Int))
(define-fun .def_35 () Int (! !pc :next !pc.next))
(define-fun .def_38 () Bool (! (= .def_35 2) :init true))
(define-fun .def_171 () Bool (= .def_35 34))
(define-fun .def_146 () Bool (= !pc.next 54))
(define-fun .def_174 () Bool (and .def_146 .def_171))
(define-fun .def_165 () Bool (= |!{$(in_main#0)<i>}.next| 0))
(define-fun .def_10 () Int (! |!{$(in_main#0)<e>}| :next |!{$(in_main#0)<e>}.next|))
(define-fun .def_79 () Bool (= .def_10 |!{$(in_main#0)<e>}.next|))
(define-fun .def_8 () Int (! |!{$(in_main#0)<N>}| :next |!{$(in_main#0)<N>}.next|))
(define-fun .def_77 () Bool (= .def_8 |!{$(in_main#0)<N>}.next|))
(define-fun .def_90 () Bool (and .def_77 .def_79))
(define-fun .def_166 () Bool (and .def_90 .def_165))
(define-fun .def_14 () Int (! |!{$(in_main#0)<j>}| :next |!{$(in_main#0)<j>}.next|))
(define-fun .def_83 () Bool (= .def_14 |!{$(in_main#0)<j>}.next|))
(define-fun .def_167 () Bool (and .def_83 .def_166))
(define-fun .def_16 () Int (! |!{$(in_main#0)<x>}| :next |!{$(in_main#0)<x>}.next|))
(define-fun .def_85 () Bool (= .def_16 |!{$(in_main#0)<x>}.next|))
(define-fun .def_168 () Bool (and .def_85 .def_167))
(define-fun .def_18 () (Array Int Int) (! |!{$(in_main#0)<a.1>}| :next |!{$(in_main#0)<a.1>}.next|))
(define-fun .def_87 () Bool (= .def_18 |!{$(in_main#0)<a.1>}.next|))
(define-fun .def_169 () Bool (and .def_87 .def_168))
(define-fun .def_153 () Bool (<= .def_8 .def_14))
(define-fun .def_170 () Bool (and .def_153 .def_169))
(define-fun .def_175 () Bool (and .def_170 .def_174))
(define-fun .def_63 () Bool (= !pc.next 34))
(define-fun .def_172 () Bool (and .def_63 .def_171))
(define-fun .def_155 () (Array Int Int) (store .def_18 .def_14 |!{$(in_main#0)<$(in___VERIFIER_nondet_int#2)<h#<__VERIFIER_nondet_int.return>>>}|))
(define-fun .def_162 () Bool (= |!{$(in_main#0)<a.1>}.next| .def_155))
(define-fun .def_157 () Int (* (- 1) |!{$(in_main#0)<j>}.next|))
(define-fun .def_158 () Int (+ .def_14 .def_157))
(define-fun .def_159 () Bool (= .def_158 (- 1)))
(define-fun .def_12 () Int (! |!{$(in_main#0)<i>}| :next |!{$(in_main#0)<i>}.next|))
(define-fun .def_81 () Bool (= .def_12 |!{$(in_main#0)<i>}.next|))
(define-fun .def_91 () Bool (and .def_81 .def_90))
(define-fun .def_160 () Bool (and .def_91 .def_159))
(define-fun .def_161 () Bool (and .def_85 .def_160))
(define-fun .def_163 () Bool (and .def_161 .def_162))
(define-fun .def_154 () Bool (not .def_153))
(define-fun .def_164 () Bool (and .def_154 .def_163))
(define-fun .def_173 () Bool (and .def_164 .def_172))
(define-fun .def_176 () Bool (or .def_173 .def_175))
(define-fun .def_145 () Bool (= .def_35 54))
(define-fun .def_113 () Bool (= !pc.next 66))
(define-fun .def_149 () Bool (and .def_113 .def_145))
(define-fun .def_140 () Bool (= |!{$(in_main#0)<x>}.next| 0))
(define-fun .def_92 () Bool (and .def_83 .def_91))
(define-fun .def_141 () Bool (and .def_92 .def_140))
(define-fun .def_142 () Bool (and .def_87 .def_141))
(define-fun .def_126 () Int (select .def_18 .def_12))
(define-fun .def_127 () Bool (= .def_10 .def_126))
(define-fun .def_128 () Bool (not .def_127))
(define-fun .def_124 () Bool (<= .def_8 .def_12))
(define-fun .def_125 () Bool (not .def_124))
(define-fun .def_129 () Bool (and .def_125 .def_128))
(define-fun .def_131 () Bool (not .def_129))
(define-fun .def_143 () Bool (and .def_131 .def_142))
(define-fun .def_150 () Bool (and .def_143 .def_149))
(define-fun .def_147 () Bool (and .def_145 .def_146))
(define-fun .def_132 () Int (* (- 1) |!{$(in_main#0)<i>}.next|))
(define-fun .def_133 () Int (+ .def_12 .def_132))
(define-fun .def_134 () Bool (= .def_133 (- 1)))
(define-fun .def_135 () Bool (and .def_90 .def_134))
(define-fun .def_136 () Bool (and .def_83 .def_135))
(define-fun .def_137 () Bool (and .def_85 .def_136))
(define-fun .def_138 () Bool (and .def_87 .def_137))
(define-fun .def_139 () Bool (and .def_129 .def_138))
(define-fun .def_148 () Bool (and .def_139 .def_147))
(define-fun .def_151 () Bool (or .def_148 .def_150))
(define-fun .def_117 () Bool (= !pc.next 0))
(define-fun .def_108 () Bool (= .def_35 66))
(define-fun .def_118 () Bool (and .def_108 .def_117))
(define-fun .def_66 () Bool (<= .def_12 .def_16))
(define-fun .def_101 () Bool (and .def_66 .def_77))
(define-fun .def_102 () Bool (and .def_79 .def_101))
(define-fun .def_103 () Bool (and .def_81 .def_102))
(define-fun .def_104 () Bool (and .def_83 .def_103))
(define-fun .def_105 () Bool (and .def_85 .def_104))
(define-fun .def_106 () Bool (and .def_87 .def_105))
(define-fun .def_119 () Bool (and .def_106 .def_118))
(define-fun .def_114 () Bool (and .def_108 .def_113))
(define-fun .def_94 () Int (* (- 1) |!{$(in_main#0)<x>}.next|))
(define-fun .def_95 () Int (+ .def_16 .def_94))
(define-fun .def_96 () Bool (= .def_95 (- 1)))
(define-fun .def_97 () Bool (and .def_92 .def_96))
(define-fun .def_98 () Bool (and .def_87 .def_97))
(define-fun .def_68 () Int (select .def_18 .def_16))
(define-fun .def_69 () Bool (= .def_10 .def_68))
(define-fun .def_70 () Bool (not .def_69))
(define-fun .def_71 () Int (ite .def_70 1 0))
(define-fun .def_72 () Bool (= .def_71 0))
(define-fun .def_73 () Bool (not .def_72))
(define-fun .def_99 () Bool (and .def_73 .def_98))
(define-fun .def_67 () Bool (not .def_66))
(define-fun .def_100 () Bool (and .def_67 .def_99))
(define-fun .def_115 () Bool (and .def_100 .def_114))
(define-fun .def_110 () Bool (= !pc.next 86))
(define-fun .def_111 () Bool (and .def_108 .def_110))
(define-fun .def_78 () Bool (and .def_72 .def_77))
(define-fun .def_80 () Bool (and .def_78 .def_79))
(define-fun .def_82 () Bool (and .def_80 .def_81))
(define-fun .def_84 () Bool (and .def_82 .def_83))
(define-fun .def_86 () Bool (and .def_84 .def_85))
(define-fun .def_88 () Bool (and .def_86 .def_87))
(define-fun .def_89 () Bool (and .def_67 .def_88))
(define-fun .def_112 () Bool (and .def_89 .def_111))
(define-fun .def_116 () Bool (or .def_112 .def_115))
(define-fun .def_120 () Bool (or .def_116 .def_119))
(define-fun .def_64 () Bool (and .def_38 .def_63))
(define-fun .def_60 () Bool (= |!{$(in_main#0)<a.1>}.next| |%{$(in_main#0)<a.1>}#1|))
(define-fun .def_58 () Bool (= |!{$(in_main#0)<x>}.next| |%{$(in_main#0)<x>}#1|))
(define-fun .def_56 () Bool (= |!{$(in_main#0)<j>}.next| 0))
(define-fun .def_54 () Bool (= |!{$(in_main#0)<i>}.next| |%{$(in_main#0)<i>}#1|))
(define-fun .def_52 () Bool (= |!{$(in_main#0)<e>}.next| |!{$(in_main#0)<$(in___VERIFIER_nondet_int#1)<h#<__VERIFIER_nondet_int.return>>>}|))
(define-fun .def_51 () Bool (= |!{$(in_main#0)<N>}.next| |!{$(in_main#0)<$(in___VERIFIER_nondet_int#0)<h#<__VERIFIER_nondet_int.return>>>}|))
(define-fun .def_53 () Bool (and .def_51 .def_52))
(define-fun .def_55 () Bool (and .def_53 .def_54))
(define-fun .def_57 () Bool (and .def_55 .def_56))
(define-fun .def_59 () Bool (and .def_57 .def_58))
(define-fun .def_61 () Bool (and .def_59 .def_60))
(define-fun .def_65 () Bool (and .def_61 .def_64))
(define-fun .def_121 () Bool (or .def_65 .def_120))
(define-fun .def_152 () Bool (or .def_121 .def_151))
(define-fun .def_177 () Bool (! (or .def_152 .def_176) :trans true))
(define-fun .def_122 () Bool (= .def_35 86))
(define-fun .def_178 () Bool (! (not .def_122) :invar-property 0 :invar-property-name ||))
(assert true)
